p cnf 848
-13 -265
-14 -268
-15 -271
-16 -274
-17 -277
-18 -280
-19 -283
-20 -286
-21 -289
-22 -292
-23 -295
-24 -298
-25 299
-26 300
-27 301
-28 302
-29 303
-30 304
-31 305
-32 -14
-32 -15
14 15 32
-33 -16
-33 -17
16 17 33
-34 -18
-34 -19
18 19 34
-35 -20
-35 -21
20 21 35
-36 -22
-36 -23
22 23 36
-37 -24
-37 -25
24 25 37
-38 -26
-38 -27
26 27 38
-39 -28
-39 -29
28 29 39
-40 -30
-40 -31
30 31 40
-41 32
-41 33
-32 -33 41
-42 34
-42 35
-34 -35 42
-43 36
-43 37
-36 -37 43
-44 38
-44 39
-38 -39 44
-45 41
-45 42
-41 -42 45
-46 43
-46 44
-43 -44 46
-47 45
-47 46
-45 -46 47
-48 40
-48 47
-40 -47 48
-49 -13
-49 14
13 -14 49
-50 13
-50 -14
-13 14 50
-51 -49
-51 -50
49 50 51
-52 13
-52 14
-13 -14 52
-53 -13
-53 -51
13 51 53
-54 13
-54 51
-13 -51 54
-55 -53
-55 -54
53 54 55
-56 13
-56 -51
-13 51 56
-57 -52
-57 -56
52 56 57
-58 -14
-58 15
14 -15 58
-59 14
-59 -15
-14 15 59
-60 -58
-60 -59
58 59 60
-61 14
-61 15
-14 -15 61
-62 57
-62 -60
-57 60 62
-63 -57
-63 60
57 -60 63
-64 -62
-64 -63
62 63 64
-65 -57
-65 -60
57 60 65
-66 -61
-66 -65
61 65 66
-67 -15
-67 16
15 -16 67
-68 15
-68 -16
-15 16 68
-69 -67
-69 -68
67 68 69
-70 15
-70 16
-15 -16 70
-71 66
-71 -69
-66 69 71
-72 -66
-72 69
66 -69 72
-73 -71
-73 -72
71 72 73
-74 -66
-74 -69
66 69 74
-75 -70
-75 -74
70 74 75
-76 -16
-76 17
16 -17 76
-77 16
-77 -17
-16 17 77
-78 -76
-78 -77
76 77 78
-79 16
-79 17
-16 -17 79
-80 75
-80 -78
-75 78 80
-81 -75
-81 78
75 -78 81
-82 -80
-82 -81
80 81 82
-83 -75
-83 -78
75 78 83
-84 -79
-84 -83
79 83 84
-85 -17
-85 18
17 -18 85
-86 17
-86 -18
-17 18 86
-87 -85
-87 -86
85 86 87
-88 17
-88 18
-17 -18 88
-89 84
-89 -87
-84 87 89
-90 -84
-90 87
84 -87 90
-91 -89
-91 -90
89 90 91
-92 -84
-92 -87
84 87 92
-93 -88
-93 -92
88 92 93
-94 -18
-94 19
18 -19 94
-95 18
-95 -19
-18 19 95
-96 -94
-96 -95
94 95 96
-97 18
-97 19
-18 -19 97
-98 93
-98 -96
-93 96 98
-99 -93
-99 96
93 -96 99
-100 -98
-100 -99
98 99 100
-101 -93
-101 -96
93 96 101
-102 -97
-102 -101
97 101 102
-103 -19
-103 20
19 -20 103
-104 19
-104 -20
-19 20 104
-105 -103
-105 -104
103 104 105
-106 19
-106 20
-19 -20 106
-107 102
-107 -105
-102 105 107
-108 -102
-108 105
102 -105 108
-109 -107
-109 -108
107 108 109
-110 -102
-110 -105
102 105 110
-111 -106
-111 -110
106 110 111
-112 -20
-112 21
20 -21 112
-113 20
-113 -21
-20 21 113
-114 -112
-114 -113
112 113 114
-115 20
-115 21
-20 -21 115
-116 111
-116 -114
-111 114 116
-117 -111
-117 114
111 -114 117
-118 -116
-118 -117
116 117 118
-119 -111
-119 -114
111 114 119
-120 -115
-120 -119
115 119 120
-121 -21
-121 22
21 -22 121
-122 21
-122 -22
-21 22 122
-123 -121
-123 -122
121 122 123
-124 21
-124 22
-21 -22 124
-125 120
-125 -123
-120 123 125
-126 -120
-126 123
120 -123 126
-127 -125
-127 -126
125 126 127
-128 -120
-128 -123
120 123 128
-129 -124
-129 -128
124 128 129
-130 -22
-130 23
22 -23 130
-131 22
-131 -23
-22 23 131
-132 -130
-132 -131
130 131 132
-133 22
-133 23
-22 -23 133
-134 129
-134 -132
-129 132 134
-135 -129
-135 132
129 -132 135
-136 -134
-136 -135
134 135 136
-137 -129
-137 -132
129 132 137
-138 -133
-138 -137
133 137 138
-139 -23
-139 24
23 -24 139
-140 23
-140 -24
-23 24 140
-141 -139
-141 -140
139 140 141
-142 23
-142 24
-23 -24 142
-143 138
-143 -141
-138 141 143
-144 -138
-144 141
138 -141 144
-145 -143
-145 -144
143 144 145
-146 -138
-146 -141
138 141 146
-147 -142
-147 -146
142 146 147
-148 -24
-148 25
24 -25 148
-149 24
-149 -25
-24 25 149
-150 -148
-150 -149
148 149 150
-151 24
-151 25
-24 -25 151
-152 147
-152 -150
-147 150 152
-153 -147
-153 150
147 -150 153
-154 -152
-154 -153
152 153 154
-155 -147
-155 -150
147 150 155
-156 -151
-156 -155
151 155 156
-157 -25
-157 26
25 -26 157
-158 25
-158 -26
-25 26 158
-159 -157
-159 -158
157 158 159
-160 25
-160 26
-25 -26 160
-161 156
-161 -159
-156 159 161
-162 -156
-162 159
156 -159 162
-163 -161
-163 -162
161 162 163
-164 -156
-164 -159
156 159 164
-165 -160
-165 -164
160 164 165
-166 -26
-166 27
26 -27 166
-167 26
-167 -27
-26 27 167
-168 -166
-168 -167
166 167 168
-169 26
-169 27
-26 -27 169
-170 165
-170 -168
-165 168 170
-171 -165
-171 168
165 -168 171
-172 -170
-172 -171
170 171 172
-173 -165
-173 -168
165 168 173
-174 -169
-174 -173
169 173 174
-175 -27
-175 28
27 -28 175
-176 27
-176 -28
-27 28 176
-177 -175
-177 -176
175 176 177
-178 27
-178 28
-27 -28 178
-179 174
-179 -177
-174 177 179
-180 -174
-180 177
174 -177 180
-181 -179
-181 -180
179 180 181
-182 -174
-182 -177
174 177 182
-183 -178
-183 -182
178 182 183
-184 -28
-184 29
28 -29 184
-185 28
-185 -29
-28 29 185
-186 -184
-186 -185
184 185 186
-187 28
-187 29
-28 -29 187
-188 183
-188 -186
-183 186 188
-189 -183
-189 186
183 -186 189
-190 -188
-190 -189
188 189 190
-191 -183
-191 -186
183 186 191
-192 -187
-192 -191
187 191 192
-193 -29
-193 30
29 -30 193
-194 29
-194 -30
-29 30 194
-195 -193
-195 -194
193 194 195
-196 29
-196 30
-29 -30 196
-197 192
-197 -195
-192 195 197
-198 -192
-198 195
192 -195 198
-199 -197
-199 -198
197 198 199
-200 -192
-200 -195
192 195 200
-201 -196
-201 -200
196 200 201
-202 -30
-202 31
30 -31 202
-203 30
-203 -31
-30 31 203
-204 -202
-204 -203
202 203 204
-205 30
-205 31
-30 -31 205
-206 201
-206 -204
-201 204 206
-207 -201
-207 204
201 -204 207
-208 -206
-208 -207
206 207 208
-209 -201
-209 -204
201 204 209
-210 -205
-210 -209
205 209 210
-211 13
-211 -55
-13 55 211
-212 -13
-212 15
13 -15 212
-213 -211
-213 -212
211 212 213
-214 13
-214 -64
-13 64 214
-215 -13
-215 16
13 -16 215
-216 -214
-216 -215
214 215 216
-217 13
-217 -73
-13 73 217
-218 -13
-218 17
13 -17 218
-219 -217
-219 -218
217 218 219
-220 13
-220 -82
-13 82 220
-221 -13
-221 18
13 -18 221
-222 -220
-222 -221
220 221 222
-223 13
-223 -91
-13 91 223
-224 -13
-224 19
13 -19 224
-225 -223
-225 -224
223 224 225
-226 13
-226 -100
-13 100 226
-227 -13
-227 20
13 -20 227
-228 -226
-228 -227
226 227 228
-229 13
-229 -109
-13 109 229
-230 -13
-230 21
13 -21 230
-231 -229
-231 -230
229 230 231
-232 13
-232 -118
-13 118 232
-233 -13
-233 22
13 -22 233
-234 -232
-234 -233
232 233 234
-235 13
-235 -127
-13 127 235
-236 -13
-236 23
13 -23 236
-237 -235
-237 -236
235 236 237
-238 13
-238 -136
-13 136 238
-239 -13
-239 24
13 -24 239
-240 -238
-240 -239
238 239 240
-241 13
-241 -145
-13 145 241
-242 -13
-242 25
13 -25 242
-243 -241
-243 -242
241 242 243
-244 13
-244 -154
-13 154 244
-245 -13
-245 26
13 -26 245
-246 -244
-246 -245
244 245 246
-247 13
-247 -163
-13 163 247
-248 -13
-248 27
13 -27 248
-249 -247
-249 -248
247 248 249
-250 13
-250 -172
-13 172 250
-251 -13
-251 28
13 -28 251
-252 -250
-252 -251
250 251 252
-253 13
-253 -181
-13 181 253
-254 -13
-254 29
13 -29 254
-255 -253
-255 -254
253 254 255
-256 13
-256 -190
-13 190 256
-257 -13
-257 30
13 -30 257
-258 -256
-258 -257
256 257 258
-259 13
-259 -199
-13 199 259
-260 -13
-260 31
13 -31 260
-261 -259
-261 -260
259 260 261
-262 13
-262 -208
-13 208 262
-263 1
-263 48
-1 -48 263
-264 -48
-264 49
48 -49 264
-265 -263
-265 -264
263 264 265
-266 2
-266 48
-2 -48 266
-267 -48
-267 -213
48 213 267
-268 -266
-268 -267
266 267 268
-269 3
-269 48
-3 -48 269
-270 -48
-270 -216
48 216 270
-271 -269
-271 -270
269 270 271
-272 4
-272 48
-4 -48 272
-273 -48
-273 -219
48 219 273
-274 -272
-274 -273
272 273 274
-275 5
-275 48
-5 -48 275
-276 -48
-276 -222
48 222 276
-277 -275
-277 -276
275 276 277
-278 6
-278 48
-6 -48 278
-279 -48
-279 -225
48 225 279
-280 -278
-280 -279
278 279 280
-281 7
-281 48
-7 -48 281
-282 -48
-282 -228
48 228 282
-283 -281
-283 -282
281 282 283
-284 8
-284 48
-8 -48 284
-285 -48
-285 -231
48 231 285
-286 -284
-286 -285
284 285 286
-287 9
-287 48
-9 -48 287
-288 -48
-288 -234
48 234 288
-289 -287
-289 -288
287 288 289
-290 10
-290 48
-10 -48 290
-291 -48
-291 -237
48 237 291
-292 -290
-292 -291
290 291 292
-293 11
-293 48
-11 -48 293
-294 -48
-294 -240
48 240 294
-295 -293
-295 -294
293 294 295
-296 12
-296 48
-12 -48 296
-297 -48
-297 -243
48 243 297
-298 -296
-298 -297
296 297 298
-299 -48
-299 -246
48 246 299
-300 -48
-300 -249
48 249 300
-301 -48
-301 -252
48 252 301
-302 -48
-302 -255
48 255 302
-303 -48
-303 -258
48 258 303
-304 -48
-304 -261
48 261 304
-305 -48
-305 262
48 -262 305
-306 -31
-306 210
31 -210 306
-307 13
-307 -306
-13 306 307
307
